(set-logic QF_S)
(declare-fun var0 () String)
(declare-fun var1 () String)
(declare-fun var2 () Int)
(declare-fun var3 () Int)
(declare-fun var4 () Int)
(declare-fun var5 () String)
(declare-fun var6 () Int)
(declare-fun var7 () String)
(assert (<= (str.len var0) (str.to.int (str.at var1 var2))))
(assert (> var3 var4))
(assert (str.contains (str.substr var5 var6 117) (str.at var7 var6)))
(assert (>= (str.len "m1qa") (str.indexof var7 var1 var2)))
(check-sat)